158	32	4	91	
10	10	10	10

0	0	0	0	0	0	2	1	9
1	0	1	1	1	6	1	2
2	1	3	6	0	10	6	24	14	13	11	8	3
3	5	5	4	0	8	2	19	4
4	0	3	2	4	9	1	5
5	7	0	4	8	2	3	20	12	6
6	5	1	0	5	5	1	7
7	0	3	2	5	10	1	10
8	8	0	5	8	4	1	10
9	0	5	5	2	5	5	30	29	28	19	15
10	3	2	3	0	5	4	29	28	17	15
11	0	6	7	3	5	5	29	28	26	21	19
12	3	9	0	1	4	4	30	29	28	18
13	2	2	6	0	7	2	30	16
14	0	3	5	3	5	2	19	18
15	1	1	0	4	3	1	16
16	3	4	0	2	7	2	27	18
17	0	5	5	4	9	2	30	18
18	5	6	0	5	10	2	26	21
19	0	4	2	4	6	2	27	23
20	2	7	0	4	2	2	29	23
21	3	0	1	4	3	1	22
22	4	7	0	3	5	1	23
23	0	2	4	7	3	1	25
24	5	0	5	4	7	1	28
25	6	0	4	2	1	1	31
26	0	8	2	6	3	1	31
27	0	4	5	2	1	1	31
28	0	2	6	2	4	1	31
29	5	0	5	6	5	1	31
30	0	3	3	5	4	1	31
31	0	0	0	0	0	0
